words_hard_train/3450.qaiger
aag 139 16 0 1 123
2
4
8
12
16
20
24
32
34
38
56
74
92
110
128
160
278
6 2 4
10 7 9
14 11 12
18 14 16
22 19 21
26 23 24
28 22 25
30 27 29
36 32 34
40 34 38
42 35 39
44 41 43
46 45 25
48 44 24
50 47 49
52 36 50
54 53 49
58 43 56
60 42 57
62 59 61
64 63 21
66 62 20
68 65 67
70 55 68
72 71 67
76 61 74
78 60 75
80 77 79
82 81 17
84 80 16
86 83 85
88 73 86
90 89 85
94 79 92
96 78 93
98 95 97
100 99 13
102 98 12
104 101 103
106 91 104
108 107 103
112 97 110
114 96 111
116 113 115
118 117 9
120 116 8
122 119 121
124 109 122
126 125 121
130 115 128
132 114 129
134 131 133
136 135 5
138 134 4
140 137 139
142 126 141
144 127 140
146 143 145
148 31 146
150 30 147
152 149 151
154 29 32
156 28 33
158 155 157
162 160 2
164 161 3
166 163 165
168 166 133
170 167 132
172 169 171
174 158 172
176 159 173
178 175 177
180 145 139
182 178 180
184 153 183
186 18 20
188 187 23
190 108 123
192 191 125
194 188 193
196 189 192
198 195 197
200 10 13
202 201 15
204 72 87
206 205 89
208 203 206
210 202 207
212 209 211
214 6 8
216 215 11
218 54 69
220 219 71
222 216 221
224 217 220
226 223 225
228 212 227
230 33 35
232 231 37
234 233 2
236 37 51
238 237 53
240 239 5
242 238 4
244 241 243
246 235 244
248 232 3
250 249 245
252 247 251
254 228 252
256 15 17
258 257 19
260 90 105
262 261 107
264 258 262
266 259 263
268 265 267
270 254 269
272 179 181
274 270 273
276 199 274
278 184 276
i0 2 y1[0]
i1 2 y1[1]
i2 2 y1[2]
i3 2 y1[3]
i4 2 y1[4]
i5 2 y1[5]
i6 2 y1[6]
i7 2 y1[7]
i8 1 x1[0]
i9 1 x1[1]
i10 1 x1[2]
i11 1 x1[3]
i12 1 x1[4]
i13 1 x1[5]
i14 1 x1[6]
i15 1 x1[7]
o0 bool[0]
c
simplified
  ==
    subtract
      reverse
        2 y1
      1 x1
    add
      2 y1
      -155
