words_hard_train/3450.qaiger.qdimacs
p cnf 139 370
a 64 37 46 80 17 19 55 28 0
e 1 2 3 4 5 6 7 8 9 10 11 12 13 14 15 16 18 20 21 22 23 24 25 26 27 29 30 31 32 33 34 35 36 38 39 40 41 42 43 44 45 47 48 49 50 51 52 53 54 56 57 58 59 60 61 62 63 65 66 67 68 69 70 71 72 73 74 75 76 77 78 79 81 82 83 84 85 86 87 88 89 90 91 92 93 94 95 96 97 98 99 100 101 102 103 104 105 106 107 108 109 110 111 112 113 114 115 116 117 118 119 120 121 122 123 124 125 126 127 128 129 130 131 132 133 134 135 136 137 138 139 0
-1 -2 3 0
1 -3 0
2 -3 0
3 4 5 0
-3 -5 0
-4 -5 0
5 -6 7 0
-5 -7 0
6 -7 0
-7 -8 9 0
7 -9 0
8 -9 0
9 10 11 0
-9 -11 0
-10 -11 0
11 -12 13 0
-11 -13 0
12 -13 0
-11 12 14 0
11 -14 0
-12 -14 0
13 14 15 0
-13 -15 0
-14 -15 0
-16 -17 18 0
16 -18 0
17 -18 0
-17 -19 20 0
17 -20 0
19 -20 0
17 19 21 0
-17 -21 0
-19 -21 0
20 21 22 0
-20 -22 0
-21 -22 0
22 12 23 0
-22 -23 0
-12 -23 0
-22 -12 24 0
22 -24 0
12 -24 0
23 24 25 0
-23 -25 0
-24 -25 0
-18 -25 26 0
18 -26 0
25 -26 0
26 24 27 0
-26 -27 0
-24 -27 0
21 -28 29 0
-21 -29 0
28 -29 0
-21 28 30 0
21 -30 0
-28 -30 0
29 30 31 0
-29 -31 0
-30 -31 0
31 10 32 0
-31 -32 0
-10 -32 0
-31 -10 33 0
31 -33 0
10 -33 0
32 33 34 0
-32 -34 0
-33 -34 0
27 -34 35 0
-27 -35 0
34 -35 0
35 33 36 0
-35 -36 0
-33 -36 0
30 -37 38 0
-30 -38 0
37 -38 0
-30 37 39 0
30 -39 0
-37 -39 0
38 39 40 0
-38 -40 0
-39 -40 0
40 8 41 0
-40 -41 0
-8 -41 0
-40 -8 42 0
40 -42 0
8 -42 0
41 42 43 0
-41 -43 0
-42 -43 0
36 -43 44 0
-36 -44 0
43 -44 0
44 42 45 0
-44 -45 0
-42 -45 0
39 -46 47 0
-39 -47 0
46 -47 0
-39 46 48 0
39 -48 0
-46 -48 0
47 48 49 0
-47 -49 0
-48 -49 0
49 6 50 0
-49 -50 0
-6 -50 0
-49 -6 51 0
49 -51 0
6 -51 0
50 51 52 0
-50 -52 0
-51 -52 0
45 -52 53 0
-45 -53 0
52 -53 0
53 51 54 0
-53 -54 0
-51 -54 0
48 -55 56 0
-48 -56 0
55 -56 0
-48 55 57 0
48 -57 0
-55 -57 0
56 57 58 0
-56 -58 0
-57 -58 0
58 4 59 0
-58 -59 0
-4 -59 0
-58 -4 60 0
58 -60 0
4 -60 0
59 60 61 0
-59 -61 0
-60 -61 0
54 -61 62 0
-54 -62 0
61 -62 0
62 60 63 0
-62 -63 0
-60 -63 0
57 -64 65 0
-57 -65 0
64 -65 0
-57 64 66 0
57 -66 0
-64 -66 0
65 66 67 0
-65 -67 0
-66 -67 0
67 2 68 0
-67 -68 0
-2 -68 0
-67 -2 69 0
67 -69 0
2 -69 0
68 69 70 0
-68 -70 0
-69 -70 0
-63 70 71 0
63 -71 0
-70 -71 0
63 -70 72 0
-63 -72 0
70 -72 0
71 72 73 0
-71 -73 0
-72 -73 0
15 -73 74 0
-15 -74 0
73 -74 0
-15 73 75 0
15 -75 0
-73 -75 0
74 75 76 0
-74 -76 0
-75 -76 0
14 -16 77 0
-14 -77 0
16 -77 0
-14 16 78 0
14 -78 0
-16 -78 0
77 78 79 0
-77 -79 0
-78 -79 0
-80 -1 81 0
80 -81 0
1 -81 0
80 1 82 0
-80 -82 0
-1 -82 0
81 82 83 0
-81 -83 0
-82 -83 0
-83 66 84 0
83 -84 0
-66 -84 0
83 -66 85 0
-83 -85 0
66 -85 0
84 85 86 0
-84 -86 0
-85 -86 0
-79 -86 87 0
79 -87 0
86 -87 0
79 86 88 0
-79 -88 0
-86 -88 0
87 88 89 0
-87 -89 0
-88 -89 0
72 69 90 0
-72 -90 0
-69 -90 0
-89 -90 91 0
89 -91 0
90 -91 0
76 91 92 0
-76 -92 0
-91 -92 0
-9 -10 93 0
9 -93 0
10 -93 0
93 11 94 0
-93 -94 0
-11 -94 0
-54 61 95 0
54 -95 0
-61 -95 0
95 62 96 0
-95 -96 0
-62 -96 0
-94 96 97 0
94 -97 0
-96 -97 0
94 -96 98 0
-94 -98 0
96 -98 0
97 98 99 0
-97 -99 0
-98 -99 0
-5 6 100 0
5 -100 0
-6 -100 0
100 7 101 0
-100 -101 0
-7 -101 0
-36 43 102 0
36 -102 0
-43 -102 0
102 44 103 0
-102 -103 0
-44 -103 0
101 -103 104 0
-101 -104 0
103 -104 0
-101 103 105 0
101 -105 0
-103 -105 0
104 105 106 0
-104 -106 0
-105 -106 0
-3 -4 107 0
3 -107 0
4 -107 0
107 5 108 0
-107 -108 0
-5 -108 0
-27 34 109 0
27 -109 0
-34 -109 0
109 35 110 0
-109 -110 0
-35 -110 0
-108 110 111 0
108 -111 0
-110 -111 0
108 -110 112 0
-108 -112 0
110 -112 0
111 112 113 0
-111 -113 0
-112 -113 0
-106 113 114 0
106 -114 0
-113 -114 0
16 17 115 0
-16 -115 0
-17 -115 0
115 18 116 0
-115 -116 0
-18 -116 0
116 -1 117 0
-116 -117 0
1 -117 0
18 25 118 0
-18 -118 0
-25 -118 0
118 26 119 0
-118 -119 0
-26 -119 0
119 2 120 0
-119 -120 0
-2 -120 0
-119 -2 121 0
119 -121 0
2 -121 0
120 121 122 0
-120 -122 0
-121 -122 0
117 -122 123 0
-117 -123 0
122 -123 0
-116 1 124 0
116 -124 0
-1 -124 0
124 122 125 0
-124 -125 0
-122 -125 0
123 125 126 0
-123 -126 0
-125 -126 0
-114 -126 127 0
114 -127 0
126 -127 0
7 8 128 0
-7 -128 0
-8 -128 0
128 9 129 0
-128 -129 0
-9 -129 0
-45 52 130 0
45 -130 0
-52 -130 0
130 53 131 0
-130 -131 0
-53 -131 0
-129 -131 132 0
129 -132 0
131 -132 0
129 131 133 0
-129 -133 0
-131 -133 0
132 133 134 0
-132 -134 0
-133 -134 0
-127 134 135 0
127 -135 0
-134 -135 0
89 90 136 0
-89 -136 0
-90 -136 0
-135 136 137 0
135 -137 0
-136 -137 0
99 -137 138 0
-99 -138 0
137 -138 0
-92 -138 139 0
92 -139 0
138 -139 0
139 0
